50 5637
152
163
412
313
313
193
225
128
454
482
411
277
475
311
204
434
215
288
210
201
336
351
412
153
398
448
181
441
102
378
284
76
315
107
413
261
224
480
66
84
143
219
313
139
131
390
474
362
393
158
